ATOMIC_SPECIES
Al 1.00 /root/SG15_ONCV_v1.0_upf/Al_ONCV_PBE-1.0.upf
N 1.00 /root/SG15_ONCV_v1.0_upf/N_ONCV_PBE-1.0.upf


LATTICE_CONSTANT
1.88972613

LATTICE_VECTORS
3.1285881996 0.0 0.0 
-1.5642940998 2.7094368588 0.0 
0.0 0.0 5.0169548988 

ATOMIC_POSITIONS
Cartesian    # Cartesian(Unit is LATTICE_CONSTANT)

Al
0.0
2
-0.087327756000 1.822553977000 5.036982885000 0 0 0
1.668411220000 0.852705390000 2.587987964000 0 0 0
N
0.0
2
0.046337371000 1.797464654000 1.830046096000 0 0 0
1.563892972000 0.859141273000 4.386309437000 0 0 0

NUMERICAL_ORBITAL
/root/Orb_SG15_DZP_E60_Standard_v1.0/Al_gga_9au_60Ry_4s4p1d.orb
/root/Orb_SG15_DZP_E60_Standard_v1.0/N_gga_8au_60Ry_2s2p1d.orb

NUMERICAL_DESCRIPTOR
./jle.orb
