ATOMIC_SPECIES
Cu 1.00 /root/SG15_ONCV_v1.0_upf/Cu_ONCV_PBE-1.0.upf
N 1.00 /root/SG15_ONCV_v1.0_upf/N_ONCV_PBE-1.0.upf


LATTICE_CONSTANT
1.88972613

LATTICE_VECTORS
3.8147060871 0.0 0.0 
0.0 3.8147060871 0.0 
0.0 0.0 3.8147060871 

ATOMIC_POSITIONS
Cartesian    # Cartesian(Unit is LATTICE_CONSTANT)

Cu
0.0
3
0.046830193086 -0.069175868384 2.017934262626 0 0 0
-0.003157671730 1.804914565716 -0.012107434876 0 0 0
1.883726915492 -0.050394543374 0.077293780463 0 0 0
N
0.0
1
-0.092937534439 -0.034201667119 -0.032495394367 0 0 0

NUMERICAL_ORBITAL
/root/Orb_SG15_DZP_E60_Standard_v1.0/Cu_gga_9au_60Ry_4s2p2d1f.orb
/root/Orb_SG15_DZP_E60_Standard_v1.0/N_gga_8au_60Ry_2s2p1d.orb

NUMERICAL_DESCRIPTOR
./jle.orb
