ATOMIC_SPECIES
Au 1.00 /root/SG15_ONCV_v1.0_upf/Au_ONCV_PBE-1.0.upf
S 1.00 /root/SG15_ONCV_v1.0_upf/S_ONCV_PBE-1.0.upf


LATTICE_CONSTANT
1.88972613

LATTICE_VECTORS
5.3471221924 0.0 0.0 
0.0 5.3471221924 0.0 
0.0 0.0 5.3471221924 

ATOMIC_POSITIONS
Cartesian    # Cartesian(Unit is LATTICE_CONSTANT)

Au
0.0
4
1.390977948000 1.305250669000 4.021129800000 0 0 0
3.994586703000 1.331219114000 1.404819653000 0 0 0
1.349672092000 4.002531008000 1.308979214000 0 0 0
3.991268742000 4.090833472000 3.905070658000 0 0 0
S
0.0
2
-0.086920344000 0.012095319000 0.019325267000 0 0 0
2.672117904000 2.644244048000 2.533119843000 0 0 0

NUMERICAL_ORBITAL
/root/Orb_SG15_DZP_E60_Standard_v1.0/Au_gga_9au_60Ry_4s2p2d1f.orb
/root/Orb_SG15_DZP_E60_Standard_v1.0/S_gga_8au_60Ry_2s2p1d.orb

NUMERICAL_DESCRIPTOR
./jle.orb
