ATOMIC_SPECIES
B 1.00 /root/SG15_ONCV_v1.0_upf/B_ONCV_PBE-1.0.upf
N 1.00 /root/SG15_ONCV_v1.0_upf/N_ONCV_PBE-1.0.upf


LATTICE_CONSTANT
1.88972613

LATTICE_VECTORS
2.5124282837 0.0 0.0 
-1.2562141418 2.1758267189 0.0 
0.0 0.0 7.7072649002 

ATOMIC_POSITIONS
Cartesian    # Cartesian(Unit is LATTICE_CONSTANT)

B
0.0
2
1.279131960090 0.731898193066 5.815599921197 0 0 0
-0.032210545325 1.566958776771 1.988188328308 0 0 0
N
0.0
2
1.284776203589 0.830755937008 1.846494659764 0 0 0
-0.108774971722 1.479168212019 5.706100088430 0 0 0

NUMERICAL_ORBITAL
/root/Orb_SG15_DZP_E60_Standard_v1.0/B_gga_8au_60Ry_2s2p1d.orb
/root/Orb_SG15_DZP_E60_Standard_v1.0/N_gga_8au_60Ry_2s2p1d.orb

NUMERICAL_DESCRIPTOR
./jle.orb
