ATOMIC_SPECIES
Ag 1.00 /root/SG15_ONCV_v1.0_upf/Ag_ONCV_PBE-1.0.upf
Cl 1.00 /root/SG15_ONCV_v1.0_upf/Cl_ONCV_PBE-1.0.upf


LATTICE_CONSTANT
1.88972613

LATTICE_VECTORS
3.97563434 0.0 0.0 
1.98781717 3.4430003346 0.0 
1.98781717 1.1476667782 3.246091845628856 

ATOMIC_POSITIONS
Cartesian    # Cartesian(Unit is LATTICE_CONSTANT)

Ag
0.0
1
0.016616304000 -0.077890212000 -0.001617655000 0 0 0
Cl
0.0
1
3.906779660000 2.376563267000 1.649729707000 0 0 0

NUMERICAL_ORBITAL
/root/Orb_SG15_DZP_E60_Standard_v1.0/Ag_gga_9au_60Ry_4s2p2d1f.orb
/root/Orb_SG15_DZP_E60_Standard_v1.0/Cl_gga_8au_60Ry_2s2p1d.orb

NUMERICAL_DESCRIPTOR
./jle.orb
