ATOMIC_SPECIES
Mg 1.00 /root/SG15_ONCV_v1.0_upf/Mg_ONCV_PBE-1.0.upf
O 1.00 /root/SG15_ONCV_v1.0_upf/O_ONCV_PBE-1.0.upf


LATTICE_CONSTANT
1.88972613

LATTICE_VECTORS
3.0097887 0.0 0.0 
1.50489435 2.6065534742233405 0.0 
1.50489435 0.868851158074447 2.457482182864905 

ATOMIC_POSITIONS
Cartesian    # Cartesian(Unit is LATTICE_CONSTANT)

Mg
0.0
1
0.128665181000 0.029287711000 0.062217046000 0 0 0
O
0.0
1
3.123617844000 1.784076200000 1.275687071000 0 0 0

NUMERICAL_ORBITAL
/root/Orb_SG15_DZP_E60_Standard_v1.0/Mg_gga_9au_60Ry_4s2p1d.orb
/root/Orb_SG15_DZP_E60_Standard_v1.0/O_gga_7au_60Ry_2s2p1d.orb

NUMERICAL_DESCRIPTOR
./jle.orb
