ATOMIC_SPECIES
Cs 1.00 /root/SG15_ONCV_v1.0_upf/Cs_ONCV_PBE-1.0.upf
Pb 1.00 /root/SG15_ONCV_v1.0_upf/Pb_ONCV_PBE-1.0.upf
I 1.00 /root/SG15_ONCV_v1.0_upf/I_ONCV_PBE-1.0.upf


LATTICE_CONSTANT
1.88972613

LATTICE_VECTORS
6.4141449928 0.0 0.0 
0.0 6.4141449928 0.0 
0.0 0.0 6.4141449928 

ATOMIC_POSITIONS
Cartesian    # Cartesian(Unit is LATTICE_CONSTANT)

Cs
0.0
1
3.155831861000 3.195950776000 3.158998281000 0 0 0
Pb
0.0
1
0.052379853000 0.024581998000 -0.131671591000 0 0 0
I
0.0
3
0.128178746000 0.005960384000 3.156540016000 0 0 0
0.041735918000 3.247276764000 0.106215496000 0 0 0
3.147756969000 0.044421446000 0.010048696000 0 0 0

NUMERICAL_ORBITAL
/root/Orb_SG15_DZP_E60_Standard_v1.0/Cs_gga_11au_60Ry_4s2p1d.orb
/root/Orb_SG15_DZP_E60_Standard_v1.0/Pb_gga_9au_60Ry_2s2p2d.orb
/root/Orb_SG15_DZP_E60_Standard_v1.0/I_gga_8au_60Ry_2s2p2d.orb

NUMERICAL_DESCRIPTOR
./jle.orb
