ATOMIC_SPECIES
Li 1.00 /root/SG15_ONCV_v1.0_upf/Li_ONCV_PBE-1.0.upf
H 1.00 /root/SG15_ONCV_v1.0_upf/H_ONCV_PBE-1.0.upf
O 1.00 /root/SG15_ONCV_v1.0_upf/O_ONCV_PBE-1.0.upf


LATTICE_CONSTANT
1.88972613

LATTICE_VECTORS
3.591363 0.0 0.0 
0.0 3.591363 0.0 
0.0 0.0 4.410464 

ATOMIC_POSITIONS
Cartesian    # Cartesian(Unit is LATTICE_CONSTANT)

Li
0.0
2
1.839052375000 1.877620205000 0.010932580000 0 0 0
-0.014768985000 -0.004392804000 -0.103064245000 0 0 0
H
0.0
2
1.686010873000 0.016429512000 2.545867986000 0 0 0
-0.022623910000 1.920321324000 1.860661796000 0 0 0
O
0.0
2
-0.018652390000 1.873541132000 0.871659072000 0 0 0
1.929142513000 0.032064298000 3.523382888000 0 0 0

NUMERICAL_ORBITAL
/root/Orb_SG15_DZP_E60_Standard_v1.0/Li_gga_9au_60Ry_4s1p.orb
/root/Orb_SG15_DZP_E60_Standard_v1.0/H_gga_8au_60Ry_2s1p.orb
/root/Orb_SG15_DZP_E60_Standard_v1.0/O_gga_7au_60Ry_2s2p1d.orb

NUMERICAL_DESCRIPTOR
./jle.orb
