ATOMIC_SPECIES
Cu 1.00 /root/SG15_ONCV_v1.0_upf/Cu_ONCV_PBE-1.0.upf
H 1.00 /root/SG15_ONCV_v1.0_upf/H_ONCV_PBE-1.0.upf
O 1.00 /root/SG15_ONCV_v1.0_upf/O_ONCV_PBE-1.0.upf


LATTICE_CONSTANT
1.88972613

LATTICE_VECTORS
2.7887330055 0.0 0.0 
0.0 4.4110479355 0.0 
0.0 0.0 5.9674210548 

ATOMIC_POSITIONS
Cartesian    # Cartesian(Unit is LATTICE_CONSTANT)

Cu
0.0
2
1.501251708000 3.486509840000 1.351531188000 0 0 0
-0.039675981000 1.344728798000 4.561531806000 0 0 0
H
0.0
2
0.046601003000 1.482077549000 1.493564347000 0 0 0
1.326971754000 3.609009185000 4.455773095000 0 0 0
O
0.0
4
1.454542969000 0.165634498000 3.990355862000 0 0 0
-0.015146052000 2.465319676000 1.992575683000 0 0 0
1.401943525000 2.216287365000 5.118713582000 0 0 0
-0.003977488000 0.050245797000 0.930008259000 0 0 0

NUMERICAL_ORBITAL
/root/Orb_SG15_DZP_E60_Standard_v1.0/Cu_gga_9au_60Ry_4s2p2d1f.orb
/root/Orb_SG15_DZP_E60_Standard_v1.0/H_gga_8au_60Ry_2s1p.orb
/root/Orb_SG15_DZP_E60_Standard_v1.0/O_gga_7au_60Ry_2s2p1d.orb

NUMERICAL_DESCRIPTOR
./jle.orb
