ATOMIC_SPECIES
In 1.00 /root/SG15_ONCV_v1.0_upf/In_ONCV_PBE-1.0.upf
P 1.00 /root/SG15_ONCV_v1.0_upf/P_ONCV_PBE-1.0.upf


LATTICE_CONSTANT
1.88972613

LATTICE_VECTORS
4.210458278 0.0 0.0 
-2.105229139 3.6463638309 0.0 
0.0 0.0 6.9021840096 

ATOMIC_POSITIONS
Cartesian    # Cartesian(Unit is LATTICE_CONSTANT)

In
0.0
2
-0.125188753741 2.488743938497 -0.005124143179 0 0 0
2.151640535034 1.274688065136 3.549067630399 0 0 0
P
0.0
2
-0.114975967728 2.505056520841 2.595392934109 0 0 0
2.073874809166 1.215201044738 6.106170504896 0 0 0

NUMERICAL_ORBITAL
/root/Orb_SG15_DZP_E60_Standard_v1.0/In_gga_9au_60Ry_2s2p2d.orb
/root/Orb_SG15_DZP_E60_Standard_v1.0/P_gga_8au_60Ry_2s2p1d.orb

NUMERICAL_DESCRIPTOR
./jle.orb
