ATOMIC_SPECIES
Li 1.00 /root/SG15_ONCV_v1.0_upf/Li_ONCV_PBE-1.0.upf
I 1.00 /root/SG15_ONCV_v1.0_upf/I_ONCV_PBE-1.0.upf


LATTICE_CONSTANT
1.88972613

LATTICE_VECTORS
4.5660734177 0.0 0.0 
-2.2830367088 3.9543355752 0.0 
0.0 0.0 7.4235649109 

ATOMIC_POSITIONS
Cartesian    # Cartesian(Unit is LATTICE_CONSTANT)

Li
0.0
2
2.426888130000 1.325072020000 3.718925750000 0 0 0
-0.006182650000 2.549351860000 7.364865160000 0 0 0
I
0.0
2
2.342747390000 1.371555200000 6.421071270000 0 0 0
-0.041889070000 2.567933740000 2.765108000000 0 0 0

NUMERICAL_ORBITAL
/root/Orb_SG15_DZP_E60_Standard_v1.0/Li_gga_9au_60Ry_4s1p.orb
/root/Orb_SG15_DZP_E60_Standard_v1.0/I_gga_8au_60Ry_2s2p2d.orb

NUMERICAL_DESCRIPTOR
./jle.orb
