ATOMIC_SPECIES
C 1.00 /root/SG15_ONCV_v1.0_upf/C_ONCV_PBE-1.0.upf


LATTICE_CONSTANT
1.88972613

LATTICE_VECTORS
2.5269944668 0.0 0.0 
1.2634972334 2.1884414035 0.0 
1.2634972334 0.7294804678 2.0632823422 

ATOMIC_POSITIONS
Cartesian    # Cartesian(Unit is LATTICE_CONSTANT)

C
0.0
2
1.161618890000 0.742068678000 0.501843029000 0 0 0
0.000000000000 0.000000000000 0.000000000000 0 0 0

NUMERICAL_ORBITAL
/root/Orb_SG15_DZP_E60_Standard_v1.0/C_gga_8au_60Ry_2s2p1d.orb

NUMERICAL_DESCRIPTOR
./jle.orb
