ATOMIC_SPECIES
Cu 1.00 /root/SG15_ONCV_v1.0_upf/Cu_ONCV_PBE-1.0.upf
Br 1.00 /root/SG15_ONCV_v1.0_upf/Br_ONCV_PBE-1.0.upf


LATTICE_CONSTANT
1.88972613

LATTICE_VECTORS
5.6990160942 0.0 0.0 
0.0 5.6990160942 0.0 
0.0 0.0 5.6990160942 

ATOMIC_POSITIONS
Cartesian    # Cartesian(Unit is LATTICE_CONSTANT)

Cu
0.0
4
1.424140306000 1.417898022000 4.285383676000 0 0 0
1.359421946000 4.359295562000 1.483478194000 0 0 0
4.270849036000 1.346512904000 1.410796369000 0 0 0
4.318369789000 4.274334094000 4.168313087000 0 0 0
Br
0.0
4
-0.035574611000 -0.048037926000 -0.112148914000 0 0 0
0.000953546000 2.718730145000 2.823032597000 0 0 0
2.827146868000 0.069286317000 2.951078861000 0 0 0
2.953580673000 2.781337866000 0.056978035000 0 0 0

NUMERICAL_ORBITAL
/root/Orb_SG15_DZP_E60_Standard_v1.0/Cu_gga_9au_60Ry_4s2p2d1f.orb
/root/Orb_SG15_DZP_E60_Standard_v1.0/Br_gga_8au_60Ry_2s2p1d.orb

NUMERICAL_DESCRIPTOR
./jle.orb
