ATOMIC_SPECIES
Pt 1.00 /root/SG15_ONCV_v1.0_upf/Pt_ONCV_PBE-1.0.upf
S 1.00 /root/SG15_ONCV_v1.0_upf/S_ONCV_PBE-1.0.upf


LATTICE_CONSTANT
1.88972613

LATTICE_VECTORS
3.5800740719 0.0 0.0 
-1.7900370359 3.1004350937 0.0 
0.0 0.0 6.25086689 

ATOMIC_POSITIONS
Cartesian    # Cartesian(Unit is LATTICE_CONSTANT)

Pt
0.0
1
-0.014408111700 -0.001805309530 0.107463544000 0 0 0
S
0.0
2
1.767232670000 1.027867640000 5.013032190000 0 0 0
0.026772246600 2.126870740000 1.277526430000 0 0 0

NUMERICAL_ORBITAL
/root/Orb_SG15_DZP_E60_Standard_v1.0/Pt_gga_9au_60Ry_4s2p2d1f.orb
/root/Orb_SG15_DZP_E60_Standard_v1.0/S_gga_8au_60Ry_2s2p1d.orb

NUMERICAL_DESCRIPTOR
./jle.orb
