ATOMIC_SPECIES
Ga 1.00 /root/SG15_ONCV_v1.0_upf/Ga_ONCV_PBE-1.0.upf
N 1.00 /root/SG15_ONCV_v1.0_upf/N_ONCV_PBE-1.0.upf


LATTICE_CONSTANT
1.88972613

LATTICE_VECTORS
3.2162899971 0.0 0.0 
-1.6081449986 2.7853888434 0.0 
0.0 0.0 5.239962101 

ATOMIC_POSITIONS
Cartesian    # Cartesian(Unit is LATTICE_CONSTANT)

Ga
0.0
2
-0.053924001854 1.817462829883 5.200303205166 0 0 0
1.491165879909 0.851138594952 2.649425429678 0 0 0
N
0.0
2
0.062750409343 1.860525305823 1.980546031103 0 0 0
1.509047906433 0.862369863109 4.525963780680 0 0 0

NUMERICAL_ORBITAL
/root/Orb_SG15_DZP_E60_Standard_v1.0/Ga_gga_9au_60Ry_2s2p2d.orb
/root/Orb_SG15_DZP_E60_Standard_v1.0/N_gga_8au_60Ry_2s2p1d.orb

NUMERICAL_DESCRIPTOR
./jle.orb
